000 000 000 000 000 000 000 000 000 000 000 000 000 000 001 001 001 001 001 008 015 017 010 004 005 003 003 002 004 003 002
000 000 000 000 000 000 000 000 000 000 000 000 000 001 000 001 000 000 001 006 012 017 007 007 004 004 002 001 002 002 002
000 000 000 000 000 000 000 000 000 000 000 000 000 000 000 000 001 001 000 002 009 013 006 006 003 004 002 002 002 001 002
-99 000 000 000 000 000 000 000 000 000 000 000 000 001 000 000 000 000 000 001 006 006 003 004 002 003 002 001 001 001 001
000 000 000 000 000 000 000 000 000 000 000 000 000 000 000 000 000 000 000 001 008 001 001 001 001 001 002 001 001 001 001
000 000 000 000 000 000 000 000 000 000 000 000 000 000 000 000 000 000 000 000 001 002 000 000 000 000 001 001 001 002 001
000 000 -99 000 000 000 000 000 000 000 000 000 000 000 000 000 000 000 000 000 000 001 000 000 000 000 -99 001 -99 -99 -99
000 000 000 000 000 000 000 000 000 000 000 000 000 000 000 000 000 000 000 000 000 001 000 000 000 000 -99 -99 -99 -99 -99
000 000 000 000 000 000 000 000 000 000 000 000 -99 000 000 000 000 000 000 000 000 000 000 000 000 000 000 000 -99 -99 -99
000 000 000 000 000 000 -99 -99 000 000 000 000 -99 -99 -99 -99 000 -99 -99 000 -99 000 000 000 001 001 000 000 000 000 000
000 000 000 000 000 000 -99 000 000 000 000 000 -99 000 000 -99 -99 -99 -99 000 000 -99 000 000 001 001 000 000 000 000 000
000 000 000 000 000 000 -99 000 -99 -99 -99 -99 -99 000 000 -99 -99 -99 -99 -99 -99 -99 000 000 001 000 000 000 000 000 000
000 000 000 000 -99 000 000 -99 000 000 000 -99 -99 000 000 000 -99 -99 -99 -99 -99 -99 -99 000 000 000 000 000 000 000 -99
-99 -99 -99 -99 000 000 000 000 -99 000 000 000 000 -99 000 000 -99 -99 -99 -99 000 000 -99 000 000 000 000 000 -99 -99 -99
-99 -99 -99 -99 000 000 000 000 000 000 000 000 000 -99 000 000 000 -99 000 000 000 -99 -99 000 000 000 000 000 000 000 -99
-99 -99 -99 -99 000 -99 000 000 000 000 000 000 -99 -99 000 000 000 -99 000 000 000 000 -99 000 000 000 000 000 000 000 -99
-99 -99 -99 -99 -99 -99 000 000 000 000 000 000 -99 -99 000 000 000 000 000 000 000 000 000 000 000 000 000 000 000 000 000
000 -99 -99 -99 -99 -99 000 000 000 -99 000 000 -99 -99 000 000 000 000 000 000 000 000 000 000 000 000 -99 -99 -99 000 000
000 000 000 -99 -99 -99 000 000 000 -99 -99 -99 -99 000 000 000 000 000 000 000 000 000 000 000 -99 -99 000 -99 -99 000 000
000 000 000 -99 -99 -99 -99 000 000 000 -99 -99 -99 000 000 000 -99 -99 -99 000 -99 000 000 -99 -99 -99 -99 -99 -99 000 -99
000 000 000 000 000 -99 -99 000 000 000 -99 -99 -99 000 000 -99 000 000 000 000 -99 000 000 -99 -99 -99 -99 -99 -99 -99 -99
000 000 000 000 000 -99 -99 -99 000 000 -99 -99 -99 000 000 000 000 000 000 000 000 000 000 -99 -99 -99 -99 -99 -99 -99 -99
000 000 000 000 -99 -99 000 -99 000 000 -99 -99 000 000 000 000 000 000 000 000 000 000 000 -99 -99 -99 -99 -99 -99 -99 -99
000 000 000 000 000 -99 000 000 000 000 -99 -99 000 000 000 000 000 000 000 000 000 000 000 -99 -99 -99 -99 -99 -99 -99 -99
000 000 000 000 000 000 000 000 000 000 -99 -99 000 000 000 000 000 000 000 000 000 000 -99 -99 -99 -99 -99 -99 -99 -99 -99
000 000 -99 000 000 000 000 000 000 000 -99 -99 -99 000 000 000 000 000 000 000 000 000 -99 -99 -99 -99 -99 -99 -99 -99 000
000 000 000 000 000 000 000 000 000 000 000 -99 000 000 000 -99 -99 -99 000 000 -99 000 -99 -99 -99 -99 -99 -99 -99 -99 000
000 000 000 000 000 -99 000 000 000 000 000 -99 000 000 000 -99 -99 -99 000 000 000 000 -99 -99 -99 -99 -99 -99 -99 000 000
000 000 000 000 000 000 000 000 000 000 000 -99 000 000 000 -99 -99 000 000 000 -99 -99 -99 -99 -99 -99 -99 -99 -99 000 000
000 000 000 000 000 000 000 000 000 000 000 -99 -99 000 000 000 -99 000 000 000 000 -99 -99 -99 -99 -99 -99 -99 -99 -99 -99
000 000 000 000 000 000 -99 000 000 000 -99 -99 -99 000 000 000 -99 000 000 000 000 -99 -99 -99 -99 -99 -99 -99 -99 -99 -99
000 000 000 000 000 -99 -99 000 000 000 -99 -99 -99 -99 000 000 -99 -99 000 000 -99 -99 -99 000 000 -99 -99 -99 -99 -99 -99
000 000 000 000 000 000 000 000 000 000 -99 -99 -99 -99 -99 000 -99 000 -99 -99 -99 000 000 000 000 -99 -99 -99 000 000 000
000 000 000 000 000 000 000 000 000 000 -99 -99 000 000 -99 -99 000 000 -99 -99 -99 000 000 000 000 000 -99 000 000 000 000
000 000 000 000 000 000 000 000 -99 -99 -99 000 000 000 000 -99 000 000 -99 000 000 -99 000 000 000 000 000 000 000 000 000
000 000 000 000 000 -99 -99 000 -99 -99 -99 -99 000 000 000 -99 000 000 -99 000 000 000 000 000 000 000 000 000 000 000 -99
000 000 -99 000 000 -99 -99 000 000 -99 -99 -99 000 000 000 000 000 -99 -99 000 000 000 000 000 000 000 -99 -99 000 000 -99
000 000 000 000 000 -99 -99 000 000 -99 -99 000 000 000 000 000 000 -99 -99 000 000 000 000 000 -99 -99 -99 -99 -99 -99 -99
000 000 000 000 000 000 -99 -99 -99 -99 -99 -99 000 000 000 000 000 -99 -99 000 000 000 000 000 -99 -99 -99 -99 -99 000 -99
000 -99 000 000 000 -99 -99 000 000 000 000 -99 000 000 000 000 000 -99 -99 -99 000 -99 000 000 -99 -99 -99 -99 -99 000 -99
-99 -99 000 000 000 -99 000 000 000 000 000 000 000 000 000 000 000 -99 000 000 000 000 000 000 -99 000 000 -99 -99 -99 -99
-99 -99 -99 -99 -99 -99 000 000 000 000 000 000 000 000 000 000 000 000 000 000 000 000 000 000 000 -99 -99 -99 -99 000 -99
-99 -99 -99 -99 -99 000 -99 000 000 000 000 000 000 000 000 000 000 000 000 000 000 000 000 -99 000 000 -99 -99 -99 -99 -99
000 -99 -99 -99 -99 -99 -99 000 000 000 000 000 000 000 000 000 000 000 000 000 000 000 000 000 000 -99 -99 000 000 -99 -99
-99 -99 -99 -99 -99 -99 000 000 000 000 000 000 000 000 000 000 -99 000 000 000 000 000 -99 000 000 -99 000 000 000 -99 -99
000 -99 -99 -99 -99 -99 -99 000 000 000 000 000 000 000 000 -99 -99 000 000 000 000 -99 -99 -99 -99 000 000 000 -99 -99 -99
000 -99 -99 -99 -99 -99 -99 -99 000 000 000 000 000 000 000 -99 -99 000 000 000 000 000 000 -99 -99 000 000 -99 -99 -99 -99
-99 -99 -99 -99 -99 -99 -99 -99 000 000 000 000 000 000 -99 -99 -99 000 000 000 000 000 000 000 -99 000 000 -99 -99 -99 -99
-99 -99 -99 -99 -99 -99 -99 -99 000 000 -99 -99 -99 000 -99 -99 000 000 000 000 000 000 000 000 -99 -99 -99 -99 -99 -99 -99
-99 -99 -99 -99 -99 -99 -99 -99 -99 -99 -99 -99 -99 -99 -99 -99 000 000 000 000 000 000 000 000 -99 -99 -99 -99 -99 -99 -99
-99 -99 -99 -99 -99 -99 -99 -99 -99 -99 -99 -99 -99 -99 -99 -99 000 -99 000 000 000 000 -99 -99 -99 -99 -99 -99 -99 -99 -99
-99 -99 -99 -99 -99 -99 -99 -99 -99 -99 -99 -99 -99 -99 -99 000 -99 000 000 000 -99 -99 -99 -99 -99 -99 -99 -99 -99 -99 -99
-99 -99 -99 -99 -99 -99 -99 -99 -99 -99 -99 -99 -99 -99 -99 -99 -99 -99 000 -99 -99 -99 -99 -99 -99 -99 -99 -99 -99 -99 -99
-99 -99 -99 -99 -99 -99 -99 -99 -99 -99 -99 -99 -99 -99 -99 -99 -99 -99 -99 -99 -99 -99 -99 -99 -99 -99 -99 -99 -99 -99 -99
-99 -99 -99 -99 -99 -99 -99 -99 -99 -99 -99 -99 -99 -99 -99 -99 -99 -99 -99 -99 -99 -99 -99 -99 -99 -99 -99 -99 -99 -99 -99
